(set-logic HORN)
(set-info :source |
    Benchmark: Horn constraint system (9 clauses, 8 relation symbols)
    Generated by Eldarica (http://lara.epfl.ch/w/eldarica)
    Output by Princess (http://www.philipp.ruemmer.org/princess.shtml)
|)
(set-info :status sat)
(declare-fun predh10_7 (Int Int Int Int Int Int Int Int Int Int Int Int Int Int Int Int Int Int Int Int) Bool)
(declare-fun predh18_6 (Int Int Int Int Int Int Int Int Int Int Int Int Int Int Int Int Int Int Int Int) Bool)
(declare-fun predh65_2 (Int Int Int Int Int Int Int Int Int Int Int Int Int Int Int Int Int Int Int Int) Bool)
(declare-fun predh70_1 (Int Int Int Int Int Int Int Int Int Int Int Int Int Int Int Int Int Int Int Int) Bool)
(declare-fun predh6_8 (Int Int Int Int Int Int Int Int Int Int Int Int Int Int Int Int Int Int Int Int) Bool)
(declare-fun predh25_4 (Int Int Int Int Int Int Int Int Int Int Int Int Int Int Int Int Int Int Int Int) Bool)
(declare-fun predh10_3 (Int Int Int Int Int Int Int Int Int Int Int Int Int Int Int Int Int Int Int Int) Bool)
(declare-fun predh22_5 (Int Int Int Int Int Int Int Int Int Int Int Int Int Int Int Int Int Int Int Int) Bool)
(assert (forall ((var0 Int)) (forall ((var1 Int)) (forall ((var2 Int)) (forall ((var3 Int)) (forall ((var4 Int)) (forall ((var5 Int)) (forall ((var6 Int)) (forall ((var7 Int)) (forall ((var8 Int)) (forall ((var9 Int)) (forall ((var10 Int)) (forall ((var11 Int)) (forall ((var12 Int)) (forall ((var13 Int)) (forall ((var14 Int)) (forall ((var15 Int)) (forall ((var16 Int)) (forall ((var17 Int)) (forall ((var18 Int)) (forall ((var19 Int)) (not (predh70_1 var19 var18 var17 var16 var15 var14 var13 var12 var11 var10 var9 var8 var7 var6 var5 var4 var3 var2 var1 var0 ) ) ) ) ) ) ) ) ) ) ) ) ) ) ) ) ) ) ) ) ) ) )
(assert (forall ((var0 Int)) (forall ((var1 Int)) (forall ((var2 Int)) (forall ((var3 Int)) (forall ((var4 Int)) (forall ((var5 Int)) (forall ((var6 Int)) (forall ((var7 Int)) (forall ((var8 Int)) (forall ((var9 Int)) (forall ((var10 Int)) (forall ((var11 Int)) (forall ((var12 Int)) (forall ((var13 Int)) (forall ((var14 Int)) (forall ((var15 Int)) (forall ((var16 Int)) (forall ((var17 Int)) (forall ((var18 Int)) (forall ((var19 Int)) (not (and (and (<= 0 (+ (+ var9 (* (- 1) var2 ) ) (* (- 1) 1 ) ) ) (<= 0 var2 ) ) (and (predh65_2 var19 var18 var17 var16 var15 var14 var13 var12 var11 var10 var9 var8 var7 var6 var5 var4 var3 var2 var1 var0 ) (not (predh70_1 var19 var18 var17 var16 var15 var14 var13 var12 var11 var10 var9 var8 var7 var6 var5 var4 var3 var2 var1 var0 ) ) ) ) ) ) ) ) ) ) ) ) ) ) ) ) ) ) ) ) ) ) ) ) ) )
(assert (forall ((var0 Int)) (forall ((var1 Int)) (forall ((var2 Int)) (forall ((var3 Int)) (forall ((var4 Int)) (forall ((var5 Int)) (forall ((var6 Int)) (forall ((var7 Int)) (forall ((var8 Int)) (forall ((var9 Int)) (forall ((var10 Int)) (forall ((var11 Int)) (forall ((var12 Int)) (forall ((var13 Int)) (forall ((var14 Int)) (forall ((var15 Int)) (forall ((var16 Int)) (forall ((var17 Int)) (forall ((var18 Int)) (not (and (and (<= 0 (+ var6 (* (- 1) var3 ) ) ) (<= 0 (+ (* (- 1) var3 ) (* (- 1) 1 ) ) ) ) (and (predh10_3 var18 var17 var16 var15 var14 var13 var12 var11 var10 var9 var6 var8 var7 var6 var5 var4 var3 var2 var1 var0 ) (not (predh65_2 var18 var17 var16 var15 var14 var13 var12 var11 var10 var9 var6 var8 var7 var6 var5 var4 var3 var2 var1 var0 ) ) ) ) ) ) ) ) ) ) ) ) ) ) ) ) ) ) ) ) ) ) ) ) )
(assert (forall ((var0 Int)) (forall ((var1 Int)) (forall ((var2 Int)) (forall ((var3 Int)) (forall ((var4 Int)) (forall ((var5 Int)) (forall ((var6 Int)) (forall ((var7 Int)) (forall ((var8 Int)) (forall ((var9 Int)) (forall ((var10 Int)) (forall ((var11 Int)) (forall ((var12 Int)) (forall ((var13 Int)) (forall ((var14 Int)) (forall ((var15 Int)) (forall ((var16 Int)) (forall ((var17 Int)) (forall ((var18 Int)) (forall ((var19 Int)) (not (and (predh25_4 var19 var18 var17 var16 var15 var14 var13 var12 var11 var10 var9 var8 var7 var6 var5 var4 var3 var2 var1 var0 ) (not (predh10_3 var19 var18 var17 var16 var15 var14 var13 var12 var11 var10 var9 var8 var7 (+ var6 1 ) var5 var4 var3 var2 var1 var0 ) ) ) ) ) ) ) ) ) ) ) ) ) ) ) ) ) ) ) ) ) ) ) ) )
(assert (forall ((var0 Int)) (forall ((var1 Int)) (forall ((var2 Int)) (forall ((var3 Int)) (forall ((var4 Int)) (forall ((var5 Int)) (forall ((var6 Int)) (forall ((var7 Int)) (forall ((var8 Int)) (forall ((var9 Int)) (forall ((var10 Int)) (forall ((var11 Int)) (forall ((var12 Int)) (forall ((var13 Int)) (forall ((var14 Int)) (forall ((var15 Int)) (forall ((var16 Int)) (forall ((var17 Int)) (forall ((var18 Int)) (forall ((var19 Int)) (not (and (and (<= 0 (+ (* (- 1) var6 ) var2 ) ) (<= 0 var2 ) ) (and (predh22_5 var19 var18 var17 var16 var15 var14 var13 var12 var11 var10 var9 var8 var7 var6 var5 var4 var3 var2 var1 var0 ) (not (predh25_4 var19 var18 var17 var16 var15 var14 var13 var12 var11 var10 var9 var8 var7 var6 var5 var4 var3 var2 var1 var0 ) ) ) ) ) ) ) ) ) ) ) ) ) ) ) ) ) ) ) ) ) ) ) ) ) )
(assert (forall ((var0 Int)) (forall ((var1 Int)) (forall ((var2 Int)) (forall ((var3 Int)) (forall ((var4 Int)) (forall ((var5 Int)) (forall ((var6 Int)) (forall ((var7 Int)) (forall ((var8 Int)) (forall ((var9 Int)) (forall ((var10 Int)) (forall ((var11 Int)) (forall ((var12 Int)) (forall ((var13 Int)) (forall ((var14 Int)) (forall ((var15 Int)) (forall ((var16 Int)) (forall ((var17 Int)) (forall ((var18 Int)) (forall ((var19 Int)) (not (and (and (<= 0 (+ var6 (* (- 1) var3 ) ) ) (<= 0 (+ (* (- 1) var3 ) (* (- 1) 1 ) ) ) ) (and (predh18_6 var19 var18 var17 var16 var15 var14 var13 var12 var11 var10 var9 var8 var7 var6 var5 var4 var3 var2 var1 var0 ) (not (predh22_5 var19 var18 var17 var16 var15 var14 var13 var12 var11 var10 var9 var8 var7 var6 var5 var4 var3 var2 var1 var0 ) ) ) ) ) ) ) ) ) ) ) ) ) ) ) ) ) ) ) ) ) ) ) ) ) )
(assert (forall ((var0 Int)) (forall ((var1 Int)) (forall ((var2 Int)) (forall ((var3 Int)) (forall ((var4 Int)) (forall ((var5 Int)) (forall ((var6 Int)) (forall ((var7 Int)) (forall ((var8 Int)) (forall ((var9 Int)) (forall ((var10 Int)) (forall ((var11 Int)) (forall ((var12 Int)) (forall ((var13 Int)) (forall ((var14 Int)) (forall ((var15 Int)) (forall ((var16 Int)) (forall ((var17 Int)) (forall ((var18 Int)) (forall ((var19 Int)) (not (and (<= 0 (+ (+ var9 (* (- 1) var6 ) ) (* (- 1) 1 ) ) ) (and (predh10_7 var19 var18 var17 var16 var15 var14 var13 var12 var11 var10 var9 var8 var7 var6 var5 var4 var3 var2 var1 var0 ) (not (predh18_6 var19 var18 var17 var16 var15 var14 var13 var12 var11 var10 var9 var8 var7 var6 var5 var4 var3 var2 var1 var0 ) ) ) ) ) ) ) ) ) ) ) ) ) ) ) ) ) ) ) ) ) ) ) ) ) )
(assert (forall ((var0 Int)) (forall ((var1 Int)) (forall ((var2 Int)) (forall ((var3 Int)) (forall ((var4 Int)) (forall ((var5 Int)) (forall ((var6 Int)) (forall ((var7 Int)) (forall ((var8 Int)) (forall ((var9 Int)) (forall ((var10 Int)) (forall ((var11 Int)) (forall ((var12 Int)) (forall ((var13 Int)) (forall ((var14 Int)) (forall ((var15 Int)) (forall ((var16 Int)) (forall ((var17 Int)) (forall ((var18 Int)) (forall ((var19 Int)) (not (and (predh6_8 var19 var18 var17 var16 var15 var14 var13 var12 var11 var10 var9 var8 var7 var6 var5 var4 var3 var2 var1 var0 ) (not (predh10_7 var19 var18 var17 var16 var15 var14 var13 var12 var11 var10 var9 var8 var7 var6 var5 var4 var3 var2 var1 var0 ) ) ) ) ) ) ) ) ) ) ) ) ) ) ) ) ) ) ) ) ) ) ) ) )
(assert (forall ((var0 Int)) (forall ((var1 Int)) (forall ((var2 Int)) (forall ((var3 Int)) (forall ((var4 Int)) (forall ((var5 Int)) (forall ((var6 Int)) (forall ((var7 Int)) (not (and (<= 0 var2 ) (not (predh6_8 var2 var6 var5 var7 var4 var3 1 var2 var1 var0 var2 var6 var5 1 var4 var3 1 var2 var1 var0 ) ) ) ) ) ) ) ) ) ) ) ) )
(check-sat)
